
Gurobi 6.0.4 (win64) logging started 06/12/15 17:24:42

Read LP format model from file E:\Eigene Dateien\Downloads\Michi shit\VRPTWMS-master\VRPTWMS\instances\mip\fuel\N8-C_DV100-C_SV25_F5_6_No_1.lp
Reading time = 0.00 seconds
(null): 417 rows, 208 columns, 1715 nonzeros
Optimize a model with 417 rows, 208 columns and 1715 nonzeros
Model has 576 quadratic constraints
WARNING: Only barrier available for SOCP models
Coefficient statistics:
  Matrix range    [1e+00, 1e+02]
  Objective range [5e+00, 1e+03]
  Bounds range    [1e+00, 1e+02]
  RHS range       [1e+00, 1e+02]
Presolve removed 46 rows and 24 columns
Presolve time: 0.03s
Presolved: 1314 rows, 678 columns, 6345 nonzeros
Variable types: 449 continuous, 229 integer (186 binary)
Optimize a model with 1314 rows, 678 columns and 6345 nonzeros
Coefficient statistics:
  Matrix range    [1e+00, 1e+02]
  Objective range [5e+00, 1e+03]
  Bounds range    [1e+00, 1e+02]
  RHS range       [1e+00, 1e+02]

Concurrent LP optimizer: dual simplex and barrier
Showing barrier log only...

Presolve removed 165 rows and 103 columns
Presolved: 1149 rows, 577 columns, 5675 nonzeros

Root barrier log...

Ordering time: 0.02s

Barrier performed 0 iterations in 0.06 seconds
Barrier solve interrupted - model solved by another algorithm


Solved with dual simplex
Solved in 97 iterations and 0.06 seconds
Optimal objective  9.216421183e+02

Root relaxation: objective 9.216421e+02, 97 iterations, 0.03 seconds

    Nodes    |    Current Node    |     Objective Bounds      |     Work
 Expl Unexpl |  Obj  Depth IntInf | Incumbent    BestBd   Gap | It/Node Time

     0     0  921.64212    0   34          -  921.64212      -     -    0s
     0     0 1666.57130    0   29          - 1666.57130      -     -    0s
     0     0 2153.73509    0   18          - 2153.73509      -     -    0s
     0     0 2156.75503    0   27          - 2156.75503      -     -    0s
     0     0 2160.85500    0   19          - 2160.85500      -     -    0s
     0     0 2160.85500    0   21          - 2160.85500      -     -    0s
     0     0 2160.85500    0   21          - 2160.85500      -     -    0s
     0     0 2160.85500    0   22          - 2160.85500      -     -    0s
H    0     0                    9377.1700000 2160.85500  77.0%     -    0s
     0     0 2160.85500    0   22 9377.17000 2160.85500  77.0%     -    0s
H    0     0                    7353.7300000 2160.85500  70.6%     -    0s
H    0     0                    6336.1200000 2160.85500  65.9%     -    0s
H    0     2                    6302.3600000 2160.85500  65.7%     -    0s
     0     2 2160.85500    0   22 6302.36000 2160.85500  65.7%     -    0s
H   58    60                    5322.8700000 2166.21000  59.3%  35.7    0s
H   63    64                    5271.6100000 2166.21000  58.9%  36.8    0s
H   94    68                    4282.7700000 2166.75000  49.4%  33.8    0s
H  123   102                    4274.8600000 2166.75000  49.3%  34.8    0s
H  352   195                    3286.7900000 2168.27000  34.0%  26.3    0s
H  486   222                    3283.9300000 2175.57337  33.8%  23.7    0s
*  609   267              22    3274.4500000 2180.85500  33.4%  23.1    0s
H  824   352                    3269.6200000 2194.62317  32.9%  23.3    0s
H  908   370                    3265.9700000 2195.31470  32.8%  22.9    0s
H 1070   419                    3248.5100000 2198.19545  32.3%  22.9    0s
H 3127   706                    3240.5000000 2253.62622  30.5%  23.3    1s

Cutting planes:
  Learned: 3
  Gomory: 6
  Cover: 345
  Implied bound: 248
  Clique: 9
  MIR: 44
  GUB cover: 2

Explored 8382 nodes (184445 simplex iterations) in 2.52 seconds
Thread count was 4 (of 4 available processors)

Optimal solution found (tolerance 1.00e-04)
Best objective 3.240500000000e+03, best bound 3.240500000000e+03, gap 0.0%
k_c1	6.0
k_c2	13.0
k_c3	8.000000000000028
k_c4	5.000000000000028
k_c5	100.0
k_c6	13.000000000000028
k_c7	4.0
k_c8	100.0
k_dN	-0.0
o_1	0.0
o_2	-0.0
o_3	0.0
o_4	0.0
o_5	-0.0
o_6	-0.0
o_7	-0.0
o_8	-0.0
p_1	0.0
p_2	1.0
p_3	0.0
p_4	0.0
p_5	0.0
p_6	1.0
p_7	-0.0
p_8	0.0
phi_c1	4.0
phi_c2	-0.0
phi_c3	4.0
phi_c4	1.0000000000000004
phi_c5	3.0
phi_c6	1.0000000000000004
phi_c7	1.0000000000000004
phi_c8	2.9999999999999982
phi_dN	-0.0
pi_c1	-0.0
pi_c2	9.00000000000001
pi_c3	-0.0
pi_c4	-0.0
pi_c5	-0.0
pi_c6	4.000000000000011
pi_c7	-0.0
pi_c8	-0.0
pi_dN	-0.0
tauD_c1	40.0
tauD_c2	21.0
tauD_c3	71.0
tauD_c4	80.00000000000003
tauD_c5	5.0
tauD_c6	12.99999999999999
tauD_c7	65.0
tauD_c8	10.0
tauD_d0	-0.0
tauD_dN	100.0
tauS_c1	5.000000000000028
tauS_c2	6.999999999999998
tauS_c3	82.0
tauS_c4	0.0
tauS_c5	1.0000000000000284
tauS_c6	44.0
tauS_c7	-0.0
tauS_c8	-0.0
tauS_d0	-0.0
tauS_dN	73.0
x_c1_c7	1.0
x_c2_c1	1.0
x_c3_c4	1.0
x_c4_dN	1.0
x_c5_c6	1.0
x_c6_c3	1.0
x_c7_dN	1.0
x_c8_c2	1.0
x_d0_c5	1.0
x_d0_c8	1.0
z_c2_c6	1.0
z_c6_dN	1.0
z_d0_c2	1.0
